NAME 
ROWS
 N  OBJ
 L  R0      
 L  R1      
 L  R2      
 E  R3      
 E  R4      
 E  R5      
 E  R6      
 E  R7      
 E  R8      
 E  R9      
 E  R10     
 E  R11     
 E  R12     
 E  R13     
 E  R14     
 E  R15     
 E  R16     
 E  R17     
 E  R18     
 E  R19     
 E  R20     
 E  R21     
 E  R22     
 E  R23     
 E  R24     
 E  R25     
 E  R26     
 E  R27     
COLUMNS
    MARKER    'MARKER'                 'INTORG'
    I0(12)    OBJ       -121
    I0(12)    R0        -170
    I0(12)    R1        184
    I0(12)    R2        -172
    I0(12)    R4        4
    I0(12)    R5        19
    I0(12)    R6        16
    I0(12)    R7        15
    I0(12)    R9        19
    I0(12)    R10       1
    I0(12)    R11       9
    I0(12)    R12       14
    I0(12)    R27       1
    I1(13)    OBJ       68
    I1(13)    R0        -182
    I1(13)    R1        21
    I1(13)    R2        -81
    I1(13)    R3        3
    I1(13)    R4        8
    I1(13)    R5        16
    I1(13)    R6        -1
    I1(13)    R7        16
    I1(13)    R8        15
    I1(13)    R9        8
    I1(13)    R10       5
    I1(13)    R12       1
    I1(13)    R27       1
    I2(12)    OBJ       -191
    I2(12)    R0        -28
    I2(12)    R1        17
    I2(12)    R2        -156
    I2(12)    R3        8
    I2(12)    R4        12
    I2(12)    R5        9
    I2(12)    R7        18
    I2(12)    R8        7
    I2(12)    R10       19
    I2(12)    R11       7
    I2(12)    R12       2
    I2(12)    R27       1
    I3(13)    OBJ       -122
    I3(13)    R0        -45
    I3(13)    R1        -194
    I3(13)    R2        -172
    I3(13)    R3        1
    I3(13)    R4        13
    I3(13)    R5        5
    I3(13)    R6        10
    I3(13)    R7        18
    I3(13)    R8        19
    I3(13)    R9        16
    I3(13)    R11       2
    I3(13)    R12       7
    I3(13)    R27       1
    I4(11)    OBJ       57
    I4(11)    R0        153
    I4(11)    R1        -130
    I4(11)    R2        105
    I4(11)    R3        13
    I4(11)    R4        15
    I4(11)    R6        14
    I4(11)    R7        10
    I4(11)    R8        -1
    I4(11)    R11       16
    I4(11)    R12       1
    I4(11)    R27       1
    I5(14)    OBJ       -104
    I5(14)    R0        198
    I5(14)    R1        -186
    I5(14)    R2        83
    I5(14)    R3        7
    I5(14)    R4        1
    I5(14)    R5        5
    I5(14)    R6        6
    I5(14)    R7        15
    I5(14)    R8        19
    I5(14)    R9        7
    I5(14)    R10       3
    I5(14)    R11       5
    I5(14)    R12       16
    I5(14)    R27       1
    I6(12)    OBJ       113
    I6(12)    R0        149
    I6(12)    R1        109
    I6(12)    R2        -52
    I6(12)    R3        7
    I6(12)    R5        7
    I6(12)    R6        10
    I6(12)    R7        12
    I6(12)    R8        7
    I6(12)    R9        -1
    I6(12)    R11       1
    I6(12)    R12       6
    I6(12)    R27       1
    I7(13)    OBJ       -105
    I7(13)    R0        60
    I7(13)    R1        99
    I7(13)    R2        -146
    I7(13)    R4        11
    I7(13)    R5        -1
    I7(13)    R6        7
    I7(13)    R7        11
    I7(13)    R8        7
    I7(13)    R9        10
    I7(13)    R10       3
    I7(13)    R11       3
    I7(13)    R12       16
    I7(13)    R27       1
    I8(10)    OBJ       112
    I8(10)    R0        157
    I8(10)    R1        146
    I8(10)    R2        29
    I8(10)    R3        4
    I8(10)    R5        19
    I8(10)    R9        3
    I8(10)    R10       8
    I8(10)    R11       3
    I8(10)    R12       16
    I8(10)    R27       1
    I9(11)    OBJ       124
    I9(11)    R0        -143
    I9(11)    R1        139
    I9(11)    R2        -79
    I9(11)    R3        18
    I9(11)    R4        8
    I9(11)    R6        11
    I9(11)    R7        7
    I9(11)    R8        9
    I9(11)    R10       14
    I9(11)    R12       8
    I9(11)    R27       1
    MARKER    'MARKER'                 'INTEND'
    C10(22)   OBJ       8
    C10(22)   R0        5
    C10(22)   R1        6
    C10(22)   R2        -10
    C10(22)   R3        19
    C10(22)   R4        17
    C10(22)   R6        18
    C10(22)   R7        14
    C10(22)   R8        2
    C10(22)   R9        10
    C10(22)   R10       10
    C10(22)   R12       10
    C10(22)   R13       3
    C10(22)   R14       7
    C10(22)   R15       19
    C10(22)   R16       7
    C10(22)   R17       15
    C10(22)   R18       -1
    C10(22)   R20       17
    C10(22)   R22       11
    C10(22)   R23       8
    C10(22)   R24       13
    C10(22)   R25       16
    C11(20)   OBJ       -10
    C11(20)   R0        -5
    C11(20)   R1        -9
    C11(20)   R2        -8
    C11(20)   R4        14
    C11(20)   R5        19
    C11(20)   R6        2
    C11(20)   R8        17
    C11(20)   R9        8
    C11(20)   R10       2
    C11(20)   R11       15
    C11(20)   R13       13
    C11(20)   R14       13
    C11(20)   R15       16
    C11(20)   R16       4
    C11(20)   R17       12
    C11(20)   R18       12
    C11(20)   R19       3
    C11(20)   R20       13
    C11(20)   R23       19
    C11(20)   R24       8
    C12(18)   R0        9
    C12(18)   R1        5
    C12(18)   R2        4
    C12(18)   R4        1
    C12(18)   R8        1
    C12(18)   R10       7
    C12(18)   R12       7
    C12(18)   R13       11
    C12(18)   R14       15
    C12(18)   R15       1
    C12(18)   R17       13
    C12(18)   R18       2
    C12(18)   R19       17
    C12(18)   R20       9
    C12(18)   R21       15
    C12(18)   R23       8
    C12(18)   R24       14
    C12(18)   R25       12
    C13(25)   OBJ       -5
    C13(25)   R0        -8
    C13(25)   R1        -9
    C13(25)   R2        -1
    C13(25)   R3        17
    C13(25)   R4        3
    C13(25)   R5        19
    C13(25)   R6        13
    C13(25)   R7        4
    C13(25)   R8        12
    C13(25)   R9        8
    C13(25)   R10       18
    C13(25)   R11       5
    C13(25)   R12       5
    C13(25)   R14       7
    C13(25)   R15       1
    C13(25)   R16       18
    C13(25)   R17       16
    C13(25)   R18       1
    C13(25)   R19       5
    C13(25)   R20       16
    C13(25)   R21       14
    C13(25)   R22       1
    C13(25)   R24       2
    C13(25)   R25       9
    C13(25)   R26       13
    C14(15)   OBJ       -7
    C14(15)   R0        -8
    C14(15)   R2        -6
    C14(15)   R3        13
    C14(15)   R5        11
    C14(15)   R8        13
    C14(15)   R9        6
    C14(15)   R12       8
    C14(15)   R13       15
    C14(15)   R14       15
    C14(15)   R16       13
    C14(15)   R18       4
    C14(15)   R19       18
    C14(15)   R21       -1
    C14(15)   R22       17
    C14(15)   R25       3
    C15(21)   OBJ       -7
    C15(21)   R0        2
    C15(21)   R1        -2
    C15(21)   R2        8
    C15(21)   R3        5
    C15(21)   R4        19
    C15(21)   R5        10
    C15(21)   R7        10
    C15(21)   R8        3
    C15(21)   R9        2
    C15(21)   R10       9
    C15(21)   R12       9
    C15(21)   R13       14
    C15(21)   R14       2
    C15(21)   R15       11
    C15(21)   R17       1
    C15(21)   R18       16
    C15(21)   R22       13
    C15(21)   R23       13
    C15(21)   R24       9
    C15(21)   R25       8
    C15(21)   R26       16
    C16(25)   OBJ       9
    C16(25)   R0        -3
    C16(25)   R1        8
    C16(25)   R2        7
    C16(25)   R3        10
    C16(25)   R4        15
    C16(25)   R5        12
    C16(25)   R6        18
    C16(25)   R7        17
    C16(25)   R8        5
    C16(25)   R9        5
    C16(25)   R10       1
    C16(25)   R11       7
    C16(25)   R12       11
    C16(25)   R13       3
    C16(25)   R15       14
    C16(25)   R16       7
    C16(25)   R17       4
    C16(25)   R18       13
    C16(25)   R19       9
    C16(25)   R20       13
    C16(25)   R21       -1
    C16(25)   R22       5
    C16(25)   R23       11
    C16(25)   R24       12
    C16(25)   R25       3
    C17(24)   OBJ       6
    C17(24)   R0        -1
    C17(24)   R1        -8
    C17(24)   R2        9
    C17(24)   R3        3
    C17(24)   R4        19
    C17(24)   R5        9
    C17(24)   R6        7
    C17(24)   R7        4
    C17(24)   R9        8
    C17(24)   R10       4
    C17(24)   R13       13
    C17(24)   R14       8
    C17(24)   R15       14
    C17(24)   R16       9
    C17(24)   R17       12
    C17(24)   R18       16
    C17(24)   R19       19
    C17(24)   R20       15
    C17(24)   R21       9
    C17(24)   R22       -1
    C17(24)   R23       17
    C17(24)   R24       12
    C17(24)   R25       18
    C17(24)   R26       18
    C18(19)   OBJ       -10
    C18(19)   R0        -5
    C18(19)   R1        -2
    C18(19)   R2        8
    C18(19)   R3        6
    C18(19)   R4        8
    C18(19)   R5        9
    C18(19)   R10       19
    C18(19)   R11       1
    C18(19)   R12       4
    C18(19)   R13       18
    C18(19)   R15       14
    C18(19)   R16       8
    C18(19)   R17       4
    C18(19)   R19       -1
    C18(19)   R22       18
    C18(19)   R23       15
    C18(19)   R24       12
    C18(19)   R25       11
    C18(19)   R26       8
    C19(23)   OBJ       -1
    C19(23)   R0        -2
    C19(23)   R1        -9
    C19(23)   R2        -4
    C19(23)   R3        14
    C19(23)   R4        19
    C19(23)   R6        7
    C19(23)   R7        18
    C19(23)   R8        10
    C19(23)   R10       -1
    C19(23)   R11       7
    C19(23)   R12       -1
    C19(23)   R13       12
    C19(23)   R14       2
    C19(23)   R15       19
    C19(23)   R16       11
    C19(23)   R18       19
    C19(23)   R19       3
    C19(23)   R20       7
    C19(23)   R21       4
    C19(23)   R22       -1
    C19(23)   R24       7
    C19(23)   R25       13
    C19(23)   R26       2
    C20(24)   OBJ       -1
    C20(24)   R0        1
    C20(24)   R1        -5
    C20(24)   R3        12
    C20(24)   R4        16
    C20(24)   R5        8
    C20(24)   R6        4
    C20(24)   R7        8
    C20(24)   R8        12
    C20(24)   R9        6
    C20(24)   R10       4
    C20(24)   R11       5
    C20(24)   R12       16
    C20(24)   R13       18
    C20(24)   R14       13
    C20(24)   R15       11
    C20(24)   R16       7
    C20(24)   R17       16
    C20(24)   R18       10
    C20(24)   R19       5
    C20(24)   R20       4
    C20(24)   R22       16
    C20(24)   R23       2
    C20(24)   R25       18
    C20(24)   R26       7
    C21(23)   OBJ       4
    C21(23)   R0        -6
    C21(23)   R1        8
    C21(23)   R2        6
    C21(23)   R3        10
    C21(23)   R4        1
    C21(23)   R6        17
    C21(23)   R7        5
    C21(23)   R8        10
    C21(23)   R9        18
    C21(23)   R11       4
    C21(23)   R12       13
    C21(23)   R13       14
    C21(23)   R15       12
    C21(23)   R16       2
    C21(23)   R17       -1
    C21(23)   R18       15
    C21(23)   R20       18
    C21(23)   R21       12
    C21(23)   R22       5
    C21(23)   R23       15
    C21(23)   R24       3
    C21(23)   R25       12
    C21(23)   R26       14
    C22(21)   OBJ       -10
    C22(21)   R0        5
    C22(21)   R1        3
    C22(21)   R2        6
    C22(21)   R3        6
    C22(21)   R4        6
    C22(21)   R5        1
    C22(21)   R6        5
    C22(21)   R8        5
    C22(21)   R9        19
    C22(21)   R10       7
    C22(21)   R11       6
    C22(21)   R12       5
    C22(21)   R13       9
    C22(21)   R14       16
    C22(21)   R17       2
    C22(21)   R18       17
    C22(21)   R20       3
    C22(21)   R22       19
    C22(21)   R23       1
    C22(21)   R24       8
    C22(21)   R26       15
    C23(24)   OBJ       3
    C23(24)   R0        6
    C23(24)   R1        6
    C23(24)   R2        1
    C23(24)   R3        19
    C23(24)   R4        13
    C23(24)   R5        11
    C23(24)   R6        3
    C23(24)   R8        7
    C23(24)   R9        3
    C23(24)   R11       9
    C23(24)   R12       7
    C23(24)   R13       17
    C23(24)   R14       18
    C23(24)   R15       13
    C23(24)   R16       12
    C23(24)   R17       10
    C23(24)   R18       15
    C23(24)   R19       16
    C23(24)   R20       14
    C23(24)   R22       18
    C23(24)   R23       19
    C23(24)   R24       2
    C23(24)   R25       1
    C23(24)   R26       6
    C24(23)   OBJ       -10
    C24(23)   R0        5
    C24(23)   R1        -5
    C24(23)   R2        2
    C24(23)   R3        14
    C24(23)   R4        -1
    C24(23)   R5        3
    C24(23)   R7        11
    C24(23)   R9        19
    C24(23)   R10       8
    C24(23)   R11       19
    C24(23)   R12       13
    C24(23)   R14       9
    C24(23)   R15       14
    C24(23)   R16       12
    C24(23)   R17       2
    C24(23)   R18       19
    C24(23)   R19       6
    C24(23)   R20       -1
    C24(23)   R21       1
    C24(23)   R22       9
    C24(23)   R24       1
    C24(23)   R25       -1
    C24(23)   R26       2
    C25(1)    R3        1
    C26(1)    R4        1
    C27(1)    R5        1
    C28(1)    R6        1
    C29(1)    R7        1
    C30(1)    R8        1
    C31(1)    R9        1
    C32(1)    R10       1
    C33(1)    R11       1
    C34(1)    R12       1
    C35(1)    R13       1
    C36(1)    R14       1
    C37(1)    R15       1
    C38(1)    R16       1
    C39(1)    R17       1
    C40(1)    R18       1
    C41(1)    R19       1
    C42(1)    R20       1
    C43(1)    R21       1
    C44(1)    R22       1
    C45(1)    R23       1
    C46(1)    R24       1
    C47(1)    R25       1
    C48(1)    R26       1
    C49(1)    R27       1
RHS
    RHS1      R0        -2.7271993311252561e+02
    RHS1      R1        -8.3748139713915
    RHS1      R2        -4.9455641799789191e+02
    RHS1      R3        78
    RHS1      R4        95
    RHS1      R5        83
    RHS1      R6        98
    RHS1      R7        68
    RHS1      R8        62
    RHS1      R9        53
    RHS1      R10       72
    RHS1      R11       76
    RHS1      R12       56
    RHS1      R13       97
    RHS1      R14       81
    RHS1      R15       86
    RHS1      R16       59
    RHS1      R17       53
    RHS1      R18       83
    RHS1      R19       81
    RHS1      R20       81
    RHS1      R21       50
    RHS1      R22       81
    RHS1      R23       53
    RHS1      R24       76
    RHS1      R25       92
    RHS1      R26       88
    RHS1      R27       3
BOUNDS
 UP BND1      I0(12)    1
 UP BND1      I1(13)    1
 UP BND1      I2(12)    1
 UP BND1      I3(13)    1
 UP BND1      I4(11)    1
 UP BND1      I5(14)    1
 UP BND1      I6(12)    1
 UP BND1      I7(13)    1
 UP BND1      I8(10)    1
 UP BND1      I9(11)    1
ENDATA
